Minimize
  obj: x0 + x1 + x2 + x3 + x4 + x5 + x6 + x7

Subject To
  c0: x1 + x2 + x3 + x4 + x7 = 51
  c1: x4 + x7 = 26
  c2: x1 + x3 + x4 + x6 = 34
  c3: x0 + x1 + x2 + x3 = 30
  c4: x1 + x4 + x5 + x6 = 48
  c5: x1 + x5 = 24
  c6: x0 + x1 + x3 + x4 + x6 = 39
  c7: x0 + x4 = 19
  c8: x1 + x2 + x3 + x6 = 35

Bounds
  x0 >= 0
  x1 >= 0
  x2 >= 0
  x3 >= 0
  x4 >= 0
  x5 >= 0
  x6 >= 0
  x7 >= 0

Generals
  x0 x1 x2 x3 x4 x5 x6 x7

End
